nJobs = 20;
nMachines = 2;
r = [32, 46, 20, 4, 26, 47, 21, 30, 12, 22, 31, 43, 11, 24, 17, 5, 4, 15, 14, 39];
p = [| 32, 25, | 47, 41, | 33, 42, | 20, 28, | 37, 10, | 41, 11, | 21, 29, | 31, 40, | 40, 22, | 47, 49, | 45, 32, | 33, 11, | 35, 48, | 19, 27, | 39, 45, | 29, 28, | 43, 46, | 21, 35, | 28, 32, | 46, 36|];
e = [| 498, 379, | 184, 140, | 382, 449, | 424, 320, | 460, 448, | 159, 131, | 329, 424, | 175, 279, | 323, 455, | 440, 395, | 263, 367, | 108, 396, | 158, 438, | 417, 309, | 345, 440, | 363, 400, | 290, 152, | 357, 319, | 370, 354, | 101, 342|];
pe = [4, 4];
